NAME : traveling-santa-2018-prime-paths.30110.tour
COMMENT : Length = 30110
COMMENT : Found by LKH [Keld Helsgaun] Mon Jun 27 15:57:31 2022
TYPE : TOUR
DIMENSION : 100
TOUR_SECTION
1
17
37
31
42
8
60
30
97
20
39
92
3
27
29
40
62
36
100
50
72
19
43
87
96
10
16
14
84
11
2
35
38
69
51
85
15
49
81
34
44
53
75
66
89
22
26
99
80
23
55
6
32
58
74
91
64
61
46
56
86
65
9
90
83
48
25
71
7
94
70
47
77
95
52
76
21
33
4
18
45
24
82
93
41
78
67
12
73
88
98
13
63
57
5
79
59
28
68
54
-1
EOF
